p cnf 12 50 
7 9 -11 0
12 7 2 0
-2 -12 10 0
7 3 9 0
-7 -4 -11 0
-1 -12 -2 0
10 -6 9 0
8 4 -7 0
-6 -9 -4 0
-7 -3 -11 0
-8 9 -2 0
-7 10 2 0
-6 12 1 0
-1 7 5 0
3 -1 -6 0
9 -10 -4 0
-5 -6 -10 0
-8 -5 2 0
-12 -7 6 0
1 -12 -4 0
9 3 -6 0
-11 6 8 0
-12 9 11 0
1 -10 2 0
8 -11 -2 0
5 -6 7 0
-4 -11 -12 0
-9 2 8 0
-1 -5 -6 0
11 -2 1 0
9 11 10 0
8 -3 5 0
11 -8 -5 0
8 -9 -4 0
9 11 -1 0
-4 -5 10 0
6 -12 7 0
-2 -8 -1 0
-9 -1 10 0
12 -6 -11 0
1 2 -8 0
-5 -4 7 0
-3 -9 -2 0
12 -6 8 0
4 7 9 0
7 5 -3 0
-12 -10 -1 0
3 9 -1 0
12 -7 10 0
-9 2 -4 0
